109525
22, 44, 68, 59, 53, 41, 78, 69, 15, 30, 35, 19, 61, 28, 33, 38, 13, 18, 77, 10, 62, 36, 66, 71, 32, 82, 29, 5, 37, 1, 79, 4, 54, 45, 80, 26, 67, 73, 52, 42, 23, 12, 3, 43, 60, 51, 27, 7, 58, 40, 20, 2, 81, 72, 56, 17, 9, 21, 46, 70, 76, 74, 75, 11, 50, 65, 31, 24, 48, 64, 16, 6, 39, 83, 8, 63, 25, 55, 57, 34, 49, 47, 14
